
n_res = 8;
rcap = [45, 45, 41, 43, 1384, 1287, 1402, 1296];
rtype = [1, 1, 1, 1, 2, 2, 2, 2];
n_tasks = 100;
modes =  [{1, 2, 3, 4, 5, 6}, {7, 8, 9, 10, 11, 12}, {13, 14, 15, 16, 17, 18}, {19, 20, 21, 22, 23, 24}, {25, 26, 27, 28, 29, 30}, {31, 32, 33, 34, 35, 36}, {37, 38, 39, 40, 41, 42}, {43, 44, 45, 46, 47, 48}, {49, 50, 51, 52, 53, 54}, {55, 56, 57, 58, 59, 60}, {61, 62, 63, 64, 65, 66}, {67, 68, 69, 70, 71, 72}, {73, 74, 75, 76, 77, 78}, {79, 80, 81, 82, 83, 84}, {85, 86, 87, 88, 89, 90}, {91, 92, 93, 94, 95, 96}, {97, 98, 99, 100, 101, 102}, {103, 104, 105, 106, 107, 108}, {109, 110, 111, 112, 113, 114}, {115, 116, 117, 118, 119, 120}, {121, 122, 123, 124, 125, 126}, {127, 128, 129, 130, 131, 132}, {133, 134, 135, 136, 137, 138}, {139, 140, 141, 142, 143, 144}, {145, 146, 147, 148, 149, 150}, {151, 152, 153, 154, 155, 156}, {157, 158, 159, 160, 161, 162}, {163, 164, 165, 166, 167, 168}, {169, 170, 171, 172, 173, 174}, {175, 176, 177, 178, 179, 180}, {181, 182, 183, 184, 185, 186}, {187, 188, 189, 190, 191, 192}, {193, 194, 195, 196, 197, 198}, {199, 200, 201, 202, 203, 204}, {205, 206, 207, 208, 209, 210}, {211, 212, 213, 214, 215, 216}, {217, 218, 219, 220, 221, 222}, {223, 224, 225, 226, 227, 228}, {229, 230, 231, 232, 233, 234}, {235, 236, 237, 238, 239, 240}, {241, 242, 243, 244, 245, 246}, {247, 248, 249, 250, 251, 252}, {253, 254, 255, 256, 257, 258}, {259, 260, 261, 262, 263, 264}, {265, 266, 267, 268, 269, 270}, {271, 272, 273, 274, 275, 276}, {277, 278, 279, 280, 281, 282}, {283, 284, 285, 286, 287, 288}, {289, 290, 291, 292, 293, 294}, {295, 296, 297, 298, 299, 300}, {301, 302, 303, 304, 305, 306}, {307, 308, 309, 310, 311, 312}, {313, 314, 315, 316, 317, 318}, {319, 320, 321, 322, 323, 324}, {325, 326, 327, 328, 329, 330}, {331, 332, 333, 334, 335, 336}, {337, 338, 339, 340, 341, 342}, {343, 344, 345, 346, 347, 348}, {349, 350, 351, 352, 353, 354}, {355, 356, 357, 358, 359, 360}, {361, 362, 363, 364, 365, 366}, {367, 368, 369, 370, 371, 372}, {373, 374, 375, 376, 377, 378}, {379, 380, 381, 382, 383, 384}, {385, 386, 387, 388, 389, 390}, {391, 392, 393, 394, 395, 396}, {397, 398, 399, 400, 401, 402}, {403, 404, 405, 406, 407, 408}, {409, 410, 411, 412, 413, 414}, {415, 416, 417, 418, 419, 420}, {421, 422, 423, 424, 425, 426}, {427, 428, 429, 430, 431, 432}, {433, 434, 435, 436, 437, 438}, {439, 440, 441, 442, 443, 444}, {445, 446, 447, 448, 449, 450}, {451, 452, 453, 454, 455, 456}, {457, 458, 459, 460, 461, 462}, {463, 464, 465, 466, 467, 468}, {469, 470, 471, 472, 473, 474}, {475, 476, 477, 478, 479, 480}, {481, 482, 483, 484, 485, 486}, {487, 488, 489, 490, 491, 492}, {493, 494, 495, 496, 497, 498}, {499, 500, 501, 502, 503, 504}, {505, 506, 507, 508, 509, 510}, {511, 512, 513, 514, 515, 516}, {517, 518, 519, 520, 521, 522}, {523, 524, 525, 526, 527, 528}, {529, 530, 531, 532, 533, 534}, {535, 536, 537, 538, 539, 540}, {541, 542, 543, 544, 545, 546}, {547, 548, 549, 550, 551, 552}, {553, 554, 555, 556, 557, 558}, {559, 560, 561, 562, 563, 564}, {565, 566, 567, 568, 569, 570}, {571, 572, 573, 574, 575, 576}, {577, 578, 579, 580, 581, 582}, {583, 584, 585, 586, 587, 588}, {589, 590, 591, 592, 593, 594}, {595, 596, 597, 598, 599, 600}];
succ =  [{50, 43, 40, 36, 35, 33, 28, 26, 22, 18, 8}, {50, 48, 47, 43, 39, 37, 35, 34, 30, 28, 26, 23, 11}, {47, 43, 40, 37, 36, 30, 29, 28, 26, 25, 22, 21, 16}, {50, 48, 40, 39, 37, 36, 26, 14, 10}, {53, 44, 39, 29, 28, 21, 15}, {50, 46, 39, 35, 31, 27, 25, 22}, {47, 46, 40, 37, 33, 27, 23, 21}, {67, 53, 48, 45, 44, 42, 41, 38, 37, 34, 32, 31, 29}, {50, 48, 44, 39, 38, 37, 36, 35, 33, 29, 26}, {57, 46, 38, 35, 29, 22}, {57, 52, 44, 40, 31, 22}, {71, 69, 62, 57, 56, 55, 54, 53, 49, 48, 42, 41, 38, 32}, {69, 62, 57, 56, 54, 53, 50, 48, 41, 40, 38, 36, 32}, {67, 55, 54, 46, 41, 32, 29, 28}, {71, 69, 67, 65, 57, 55, 47, 46, 42, 41, 38, 36, 31}, {71, 67, 64, 62, 60, 56, 53, 52, 49, 46, 41, 39, 34}, {55, 52, 47, 42, 38, 37, 29}, {71, 64, 63, 60, 57, 56, 54, 49, 48, 46, 41, 34}, {69, 65, 56, 55, 54, 52, 49, 44, 42, 38}, {77, 65, 64, 56, 49, 41, 34, 28}, {77, 71, 65, 64, 62, 61, 58, 52, 50, 49, 38, 34}, {77, 73, 69, 67, 65, 62, 55, 54, 53, 51, 49, 42, 41}, {64, 55, 49, 44, 41, 38, 36}, {71, 67, 66, 64, 62, 61, 60, 59, 58, 57, 55, 53, 52, 50}, {77, 62, 61, 58, 57, 54, 48, 38}, {84, 71, 69, 67, 64, 63, 55, 52, 49, 46}, {84, 77, 71, 69, 67, 66, 62, 60, 55, 52, 49}, {76, 74, 73, 71, 69, 62, 61, 58, 38}, {84, 77, 76, 75, 71, 69, 65, 64, 63, 62, 61, 60, 49}, {84, 83, 81, 77, 76, 73, 71, 69, 66, 60, 55, 49}, {77, 76, 73, 70, 66, 63, 61, 60, 58, 56, 51}, {83, 82, 77, 68, 66, 64, 63, 61, 52, 47}, {84, 82, 77, 71, 66, 62, 61, 53, 52}, {84, 76, 73, 70, 69, 66, 59, 55, 51}, {80, 77, 70, 63, 61, 60, 59, 58, 56}, {100, 97, 96, 94, 84, 83, 82, 77, 75, 74, 73, 70, 66, 63, 59}, {100, 96, 82, 80, 77, 75, 74, 70, 62, 59, 54}, {70, 68, 66, 63, 60, 59, 51}, {100, 96, 84, 83, 82, 79, 75, 74, 72, 70, 66, 54}, {84, 81, 76, 73, 66, 60, 55}, {100, 97, 95, 93, 81, 76, 74, 72, 70, 66, 61, 58}, {100, 95, 93, 83, 80, 76, 74, 70, 68, 64, 61, 58}, {100, 99, 97, 96, 90, 84, 80, 76, 75, 74, 73, 72, 71, 62}, {100, 97, 84, 82, 81, 80, 77, 71, 70, 68, 61, 59}, {76, 66, 62, 61, 60}, {97, 95, 93, 90, 83, 82, 81, 79, 78, 77, 76, 74, 68, 66}, {99, 96, 94, 93, 80, 74, 70, 60, 59}, {100, 99, 98, 97, 96, 94, 93, 91, 90, 88, 86, 81, 80, 78, 75, 73}, {97, 96, 94, 93, 80, 74, 70, 59}, {100, 99, 97, 94, 93, 91, 90, 83, 74, 73, 72}, {99, 97, 96, 94, 93, 92, 91, 90, 88, 83, 82, 81, 80, 79, 75}, {100, 98, 97, 96, 92, 91, 90, 88, 86, 78, 76, 75, 73}, {95, 94, 92, 80, 74, 70, 68, 63}, {99, 97, 95, 93, 92, 91, 90, 88, 86, 81, 78, 76}, {100, 95, 93, 92, 90, 75, 74, 68}, {95, 93, 90, 82, 79, 75, 74, 68}, {98, 97, 96, 93, 92, 90, 89, 78, 75, 74}, {99, 94, 92, 91, 90, 89, 88, 87, 84, 82, 79}, {95, 92, 91, 90, 89, 79, 72}, {100, 97, 92, 91, 86, 79, 72}, {99, 96, 94, 92, 90, 88, 87, 86, 79}, {95, 93, 91, 88, 85, 83, 81, 78}, {93, 91, 90, 89, 86, 85, 81, 78}, {98, 97, 92, 90, 89, 86, 85, 78}, {91, 90, 79, 78, 74}, {99, 92, 88, 87, 86, 85, 80}, {94, 89, 82, 81, 79}, {96, 91, 89, 88, 87, 86, 85}, {93, 91, 89, 82, 79}, {90, 86, 85, 78}, {89, 87, 86, 85}, {98, 88, 78}, {95, 89, 79}, {88, 86}, {87, 85}, {94, 85}, {88, 86}, {87}, {85}, {89}, {87}, {86}, {86}, {85}, {}, {}, {}, {}, {}, {}, {}, {}, {}, {}, {}, {}, {}, {}, {}, {}];
n_opt = 600;
dur = [1, 2, 4, 5, 10, 23, 1, 7, 11, 16, 18, 23, 14, 15, 19, 22, 24, 28, 2, 5, 12, 21, 24, 27, 1, 3, 5, 21, 25, 29, 11, 14, 19, 28, 29, 30, 8, 9, 15, 17, 19, 26, 1, 10, 16, 19, 20, 22, 4, 13, 19, 21, 25, 28, 13, 16, 21, 25, 26, 29, 4, 12, 14, 17, 18, 29, 2, 4, 13, 14, 23, 29, 2, 13, 19, 24, 25, 26, 1, 5, 6, 9, 26, 30, 7, 14, 15, 22, 29, 30, 1, 10, 11, 18, 20, 25, 4, 6, 13, 24, 26, 27, 4, 7, 13, 19, 24, 28, 6, 11, 14, 20, 21, 22, 3, 21, 22, 23, 25, 27, 7, 8, 12, 13, 19, 29, 9, 13, 18, 22, 27, 28, 7, 10, 14, 15, 18, 22, 9, 16, 17, 19, 22, 27, 5, 6, 7, 19, 23, 28, 2, 3, 4, 17, 19, 21, 1, 5, 6, 13, 25, 28, 1, 2, 13, 15, 17, 20, 1, 2, 8, 14, 15, 28, 2, 6, 13, 14, 15, 30, 1, 2, 3, 13, 16, 23, 1, 8, 10, 12, 24, 26, 7, 15, 19, 20, 21, 29, 2, 3, 6, 20, 21, 26, 1, 8, 19, 25, 28, 29, 5, 7, 9, 10, 18, 23, 5, 8, 13, 16, 20, 30, 1, 11, 14, 21, 24, 25, 3, 4, 7, 11, 25, 26, 5, 9, 12, 15, 22, 25, 5, 10, 16, 20, 29, 30, 2, 9, 10, 12, 13, 16, 11, 12, 13, 15, 21, 28, 1, 2, 11, 23, 24, 26, 6, 9, 15, 20, 25, 26, 1, 7, 14, 16, 20, 28, 4, 15, 18, 21, 29, 30, 3, 5, 9, 21, 22, 23, 10, 12, 17, 24, 25, 26, 3, 4, 7, 12, 18, 19, 10, 22, 25, 27, 29, 30, 4, 8, 10, 12, 25, 28, 4, 8, 9, 10, 26, 29, 2, 8, 10, 14, 19, 27, 11, 20, 23, 28, 29, 30, 13, 16, 17, 18, 21, 22, 10, 14, 19, 21, 25, 28, 1, 6, 9, 14, 21, 28, 2, 6, 7, 11, 27, 28, 1, 16, 18, 20, 21, 24, 6, 9, 11, 25, 28, 30, 10, 14, 15, 16, 20, 21, 1, 6, 12, 16, 17, 25, 11, 12, 16, 19, 20, 26, 1, 11, 12, 16, 25, 30, 1, 7, 8, 9, 21, 24, 1, 11, 20, 26, 28, 29, 6, 7, 14, 15, 19, 29, 2, 4, 12, 13, 19, 28, 6, 10, 19, 24, 27, 28, 2, 5, 11, 13, 16, 23, 1, 2, 6, 10, 24, 29, 4, 5, 6, 8, 11, 29, 8, 16, 21, 22, 27, 28, 2, 7, 8, 9, 25, 27, 6, 25, 26, 27, 28, 29, 2, 8, 9, 21, 26, 28, 2, 4, 5, 9, 17, 18, 1, 7, 12, 13, 15, 22, 3, 7, 13, 14, 15, 16, 1, 4, 10, 11, 16, 21, 7, 8, 13, 28, 29, 30, 1, 2, 5, 17, 23, 26, 6, 10, 12, 15, 16, 24, 1, 3, 7, 8, 15, 28, 2, 5, 12, 18, 24, 27, 1, 11, 12, 13, 25, 28, 2, 4, 15, 20, 27, 29, 1, 2, 16, 24, 25, 29, 5, 8, 14, 15, 17, 23, 5, 7, 8, 9, 11, 12, 7, 20, 21, 22, 25, 26, 5, 18, 20, 23, 24, 30, 4, 12, 13, 15, 18, 26, 11, 13, 14, 19, 22, 29, 2, 3, 10, 12, 19, 24, 2, 3, 8, 9, 13, 29, 3, 5, 15, 22, 25, 27, 3, 4, 22, 23, 25, 26, 3, 8, 15, 16, 20, 27];
rreq = [|2, 1, 1, 1, 1, 1, 3, 2, 2, 2, 1, 1, 4, 3, 3, 2, 2, 2, 5, 5, 5, 5, 5, 5, 4, 4, 4, 4, 4, 4, 4, 4, 4, 4, 4, 4, 3, 3, 3, 2, 2, 1, 4, 3, 3, 3, 3, 3, 4, 4, 4, 4, 4, 4, 4, 3, 3, 3, 2, 2, 4, 4, 4, 3, 2, 2, 3, 2, 2, 2, 2, 2, 3, 3, 3, 3, 3, 3, 3, 3, 3, 3, 3, 3, 3, 3, 3, 3, 2, 2, 4, 3, 3, 3, 2, 2, 3, 3, 3, 3, 2, 2, 3, 3, 3, 3, 2, 2, 2, 2, 2, 2, 2, 2, 3, 3, 3, 3, 3, 3, 4, 3, 3, 2, 2, 1, 2, 2, 2, 1, 1, 1, 4, 4, 4, 4, 4, 4, 3, 2, 2, 2, 2, 2, 4, 4, 4, 3, 2, 2, 3, 3, 3, 2, 2, 2, 4, 3, 2, 2, 2, 1, 4, 3, 3, 3, 3, 3, 5, 4, 4, 4, 4, 4, 4, 3, 3, 2, 1, 1, 2, 2, 2, 2, 1, 1, 4, 4, 4, 3, 3, 3, 2, 1, 1, 1, 1, 1, 3, 2, 2, 2, 2, 2, 4, 4, 3, 3, 1, 1, 4, 4, 3, 3, 2, 2, 4, 3, 3, 3, 3, 3, 3, 2, 2, 2, 1, 1, 2, 2, 2, 1, 1, 1, 3, 2, 2, 2, 2, 2, 4, 3, 3, 3, 2, 2, 3, 3, 3, 3, 2, 2, 2, 2, 2, 2, 2, 2, 3, 3, 3, 3, 3, 3, 4, 3, 3, 3, 3, 3, 3, 3, 3, 3, 3, 3, 1, 1, 1, 1, 1, 1, 2, 2, 2, 2, 2, 2, 2, 2, 2, 2, 2, 2, 3, 3, 2, 2, 1, 1, 2, 2, 2, 2, 2, 2, 3, 3, 3, 3, 2, 2, 3, 2, 2, 2, 1, 1, 5, 3, 3, 2, 1, 1, 4, 3, 3, 2, 2, 1, 2, 2, 2, 2, 2, 2, 4, 3, 2, 2, 2, 1, 5, 4, 4, 4, 4, 4, 2, 1, 1, 1, 1, 1, 2, 2, 2, 1, 1, 1, 5, 4, 4, 4, 3, 3, 5, 4, 4, 4, 4, 4, 4, 3, 3, 3, 2, 2, 4, 4, 4, 3, 3, 2, 4, 4, 4, 4, 4, 4, 4, 4, 4, 4, 4, 4, 3, 2, 2, 2, 1, 1, 4, 4, 4, 3, 2, 2, 5, 5, 5, 5, 5, 5, 1, 1, 1, 1, 1, 1, 2, 2, 2, 2, 2, 2, 5, 5, 5, 5, 5, 5, 2, 2, 2, 1, 1, 1, 5, 5, 5, 5, 5, 5, 3, 2, 2, 1, 1, 1, 5, 5, 5, 5, 5, 5, 5, 4, 4, 4, 4, 4, 3, 3, 3, 3, 3, 3, 3, 3, 3, 3, 3, 3, 4, 4, 3, 2, 2, 1, 4, 3, 3, 3, 1, 1, 5, 4, 3, 3, 2, 2, 4, 3, 3, 2, 2, 2, 3, 3, 3, 2, 2, 2, 1, 1, 1, 1, 1, 1, 4, 4, 4, 4, 3, 3, 4, 4, 4, 4, 4, 4, 2, 2, 2, 2, 2, 2, 1, 1, 1, 1, 1, 1, 2, 1, 1, 1, 1, 1, 5, 4, 4, 4, 4, 4, 3, 3, 3, 3, 3, 3, 2, 2, 2, 2, 1, 1, 4, 3, 3, 2, 2, 1, 4, 4, 4, 3, 3, 2, 4, 3, 3, 3, 3, 3, 3, 2, 2, 2, 2, 2, 5, 4, 4, 4, 4, 4, 4, 4, 4, 3, 2, 2, 4, 4, 4, 4, 4, 4
 |3, 3, 2, 2, 1, 1, 5, 4, 3, 3, 3, 2, 5, 4, 4, 4, 3, 3, 3, 3, 3, 3, 3, 3, 4, 3, 2, 2, 1, 1, 5, 4, 4, 4, 4, 4, 4, 3, 3, 3, 3, 3, 5, 4, 3, 3, 3, 2, 2, 2, 2, 1, 1, 1, 4, 4, 4, 4, 4, 4, 5, 4, 4, 4, 4, 4, 5, 4, 4, 4, 3, 3, 2, 2, 2, 2, 2, 2, 5, 4, 4, 3, 3, 3, 3, 2, 2, 2, 2, 2, 4, 4, 4, 4, 3, 3, 2, 2, 2, 2, 2, 2, 5, 4, 4, 4, 4, 4, 5, 4, 4, 3, 2, 2, 4, 4, 4, 3, 2, 2, 5, 4, 4, 4, 3, 3, 3, 2, 2, 2, 1, 1, 5, 4, 4, 3, 3, 2, 4, 4, 4, 4, 4, 4, 3, 3, 3, 3, 3, 3, 5, 4, 4, 4, 4, 4, 3, 3, 3, 3, 3, 3, 4, 4, 4, 4, 4, 4, 3, 2, 2, 2, 1, 1, 3, 3, 3, 3, 3, 3, 4, 4, 4, 4, 4, 4, 1, 1, 1, 1, 1, 1, 5, 5, 5, 5, 5, 5, 2, 2, 2, 2, 1, 1, 5, 4, 4, 4, 4, 4, 4, 4, 3, 3, 1, 1, 4, 4, 4, 4, 4, 4, 5, 4, 4, 4, 4, 4, 1, 1, 1, 1, 1, 1, 1, 1, 1, 1, 1, 1, 4, 3, 3, 2, 1, 1, 1, 1, 1, 1, 1, 1, 5, 3, 3, 3, 2, 1, 2, 1, 1, 1, 1, 1, 4, 4, 4, 4, 4, 4, 3, 3, 3, 2, 2, 2, 2, 2, 2, 1, 1, 1, 5, 4, 4, 4, 4, 4, 2, 1, 1, 1, 1, 1, 2, 2, 2, 1, 1, 1, 5, 4, 4, 4, 4, 4, 5, 4, 3, 3, 1, 1, 3, 3, 3, 2, 2, 1, 4, 4, 4, 4, 3, 3, 4, 3, 3, 3, 2, 1, 4, 4, 4, 4, 4, 4, 5, 4, 4, 3, 2, 2, 4, 3, 3, 2, 2, 2, 3, 2, 2, 2, 1, 1, 4, 4, 4, 3, 3, 3, 4, 3, 3, 3, 3, 3, 4, 3, 3, 3, 2, 1, 5, 4, 4, 3, 2, 2, 3, 3, 3, 3, 2, 2, 3, 2, 2, 2, 2, 2, 5, 4, 4, 4, 3, 3, 3, 3, 3, 3, 3, 3, 3, 3, 3, 3, 2, 2, 3, 2, 2, 2, 1, 1, 5, 4, 4, 3, 3, 2, 5, 4, 3, 3, 2, 2, 4, 3, 3, 2, 2, 2, 3, 2, 2, 2, 2, 2, 1, 1, 1, 1, 1, 1, 3, 3, 3, 3, 3, 3, 3, 3, 3, 2, 2, 2, 2, 2, 2, 2, 2, 2, 3, 2, 2, 2, 2, 2, 4, 3, 3, 3, 3, 3, 5, 4, 4, 4, 3, 3, 5, 4, 4, 3, 3, 3, 2, 2, 2, 2, 2, 2, 3, 3, 3, 3, 3, 3, 5, 4, 4, 4, 3, 3, 3, 2, 2, 2, 1, 1, 4, 4, 4, 4, 4, 4, 4, 4, 4, 4, 4, 4, 2, 1, 1, 1, 1, 1, 5, 4, 4, 3, 3, 3, 3, 3, 3, 3, 3, 3, 4, 4, 4, 3, 2, 2, 3, 2, 2, 2, 2, 2, 3, 2, 2, 2, 1, 1, 3, 3, 3, 2, 2, 2, 4, 4, 4, 4, 3, 3, 3, 3, 3, 2, 2, 2, 2, 1, 1, 1, 1, 1, 3, 3, 3, 2, 2, 2, 5, 4, 4, 3, 3, 2, 5, 4, 4, 4, 4, 4
 |2, 2, 2, 2, 2, 2, 4, 4, 4, 4, 4, 4, 3, 3, 3, 3, 3, 3, 4, 4, 3, 2, 2, 1, 4, 3, 3, 2, 2, 1, 1, 1, 1, 1, 1, 1, 4, 3, 3, 2, 2, 2, 3, 2, 2, 1, 1, 1, 4, 4, 4, 4, 4, 4, 5, 3, 3, 2, 1, 1, 4, 4, 4, 3, 2, 2, 4, 3, 3, 3, 3, 3, 1, 1, 1, 1, 1, 1, 3, 3, 3, 2, 2, 2, 3, 3, 3, 3, 3, 3, 5, 4, 4, 3, 3, 3, 2, 2, 2, 1, 1, 1, 5, 4, 4, 3, 2, 2, 4, 4, 4, 4, 4, 4, 2, 2, 2, 2, 1, 1, 3, 3, 2, 2, 2, 1, 5, 4, 4, 4, 3, 3, 4, 3, 3, 2, 2, 2, 3, 3, 3, 3, 2, 2, 4, 3, 3, 3, 3, 3, 3, 2, 2, 2, 2, 2, 2, 1, 1, 1, 1, 1, 4, 4, 4, 4, 3, 3, 2, 2, 2, 2, 2, 2, 1, 1, 1, 1, 1, 1, 2, 2, 2, 2, 2, 2, 5, 5, 5, 5, 5, 5, 5, 3, 3, 3, 2, 1, 3, 3, 2, 2, 1, 1, 3, 3, 3, 3, 2, 2, 5, 4, 4, 4, 4, 4, 1, 1, 1, 1, 1, 1, 5, 4, 3, 2, 1, 1, 3, 2, 2, 2, 2, 2, 5, 4, 3, 3, 2, 1, 3, 3, 3, 2, 2, 1, 4, 4, 4, 4, 4, 4, 3, 2, 2, 2, 2, 2, 4, 3, 3, 2, 2, 1, 1, 1, 1, 1, 1, 1, 5, 4, 3, 3, 3, 2, 1, 1, 1, 1, 1, 1, 3, 3, 3, 3, 3, 3, 3, 2, 2, 1, 1, 1, 5, 4, 3, 2, 2, 1, 2, 2, 2, 2, 2, 2, 5, 5, 5, 5, 5, 5, 1, 1, 1, 1, 1, 1, 5, 4, 4, 4, 3, 3, 4, 3, 3, 3, 3, 3, 2, 2, 2, 1, 1, 1, 5, 3, 3, 2, 1, 1, 3, 3, 3, 3, 3, 3, 3, 2, 2, 2, 1, 1, 1, 1, 1, 1, 1, 1, 3, 3, 3, 3, 3, 3, 4, 4, 3, 3, 2, 2, 1, 1, 1, 1, 1, 1, 4, 3, 3, 3, 2, 2, 4, 4, 4, 4, 4, 4, 4, 3, 3, 3, 2, 2, 3, 3, 3, 3, 3, 3, 5, 3, 3, 2, 1, 1, 4, 4, 4, 3, 3, 3, 5, 4, 4, 4, 4, 4, 1, 1, 1, 1, 1, 1, 3, 3, 2, 2, 1, 1, 4, 4, 4, 3, 2, 2, 2, 2, 2, 1, 1, 1, 2, 1, 1, 1, 1, 1, 5, 4, 3, 3, 3, 2, 3, 2, 2, 2, 2, 2, 3, 3, 3, 3, 2, 2, 4, 3, 3, 3, 2, 2, 4, 4, 4, 4, 4, 4, 2, 2, 2, 1, 1, 1, 5, 4, 3, 3, 3, 2, 3, 2, 2, 2, 1, 1, 4, 3, 2, 2, 1, 1, 3, 2, 2, 1, 1, 1, 4, 3, 2, 2, 2, 1, 2, 2, 2, 2, 2, 2, 5, 4, 4, 3, 3, 3, 5, 4, 4, 4, 4, 4, 3, 3, 3, 2, 1, 1, 2, 2, 2, 2, 2, 2, 2, 1, 1, 1, 1, 1, 4, 4, 4, 4, 3, 3, 2, 1, 1, 1, 1, 1, 3, 3, 3, 3, 3, 3, 4, 4, 4, 4, 4, 4, 3, 2, 2, 1, 1, 1, 2, 2, 2, 2, 2, 2, 4, 3, 3, 3, 1, 1, 4, 4, 4, 3, 3, 2
 |5, 4, 4, 4, 4, 4, 5, 4, 4, 4, 4, 4, 5, 5, 5, 5, 5, 5, 5, 4, 4, 3, 3, 3, 2, 2, 2, 2, 2, 2, 5, 4, 4, 3, 3, 2, 4, 4, 4, 4, 4, 4, 4, 3, 3, 2, 1, 1, 4, 3, 2, 2, 2, 1, 5, 4, 3, 2, 2, 1, 3, 2, 2, 2, 1, 1, 4, 4, 4, 4, 3, 3, 4, 3, 3, 3, 2, 2, 3, 3, 2, 2, 1, 1, 4, 4, 4, 4, 4, 4, 4, 4, 4, 4, 3, 3, 1, 1, 1, 1, 1, 1, 4, 3, 3, 3, 3, 3, 5, 4, 4, 4, 4, 4, 2, 2, 2, 2, 1, 1, 1, 1, 1, 1, 1, 1, 3, 2, 2, 2, 1, 1, 1, 1, 1, 1, 1, 1, 2, 1, 1, 1, 1, 1, 3, 2, 2, 1, 1, 1, 2, 2, 2, 2, 2, 2, 3, 3, 3, 3, 2, 2, 3, 3, 3, 3, 3, 3, 4, 4, 4, 4, 4, 4, 3, 3, 3, 3, 3, 3, 2, 2, 2, 2, 2, 2, 5, 4, 4, 3, 2, 2, 4, 4, 4, 4, 4, 4, 5, 4, 4, 4, 3, 3, 2, 2, 2, 2, 1, 1, 3, 3, 3, 3, 3, 3, 4, 4, 4, 3, 3, 3, 3, 3, 3, 2, 2, 1, 5, 4, 4, 3, 3, 3, 4, 4, 4, 3, 3, 3, 4, 4, 3, 3, 3, 2, 2, 1, 1, 1, 1, 1, 5, 4, 4, 3, 3, 2, 4, 3, 3, 3, 3, 3, 3, 3, 3, 3, 3, 3, 1, 1, 1, 1, 1, 1, 4, 4, 4, 4, 4, 4, 5, 4, 4, 4, 4, 4, 4, 4, 4, 3, 3, 3, 4, 3, 2, 2, 2, 1, 2, 1, 1, 1, 1, 1, 3, 3, 3, 3, 3, 3, 1, 1, 1, 1, 1, 1, 1, 1, 1, 1, 1, 1, 2, 2, 2, 1, 1, 1, 4, 3, 3, 3, 3, 3, 3, 2, 2, 2, 2, 2, 2, 2, 2, 2, 2, 2, 4, 3, 3, 3, 3, 3, 2, 2, 2, 2, 2, 2, 1, 1, 1, 1, 1, 1, 3, 3, 3, 3, 2, 2, 2, 1, 1, 1, 1, 1, 4, 4, 4, 3, 2, 2, 4, 4, 3, 3, 2, 1, 3, 3, 3, 3, 3, 3, 4, 4, 4, 3, 3, 3, 1, 1, 1, 1, 1, 1, 3, 3, 3, 3, 2, 2, 5, 5, 5, 5, 5, 5, 5, 5, 5, 5, 5, 5, 4, 4, 4, 4, 3, 3, 4, 4, 4, 3, 2, 2, 3, 3, 3, 3, 3, 3, 3, 3, 3, 3, 3, 3, 4, 3, 2, 2, 2, 1, 4, 3, 3, 3, 2, 2, 5, 4, 4, 4, 4, 4, 2, 2, 2, 2, 2, 2, 1, 1, 1, 1, 1, 1, 5, 5, 5, 5, 5, 5, 4, 3, 3, 2, 2, 2, 2, 2, 2, 2, 2, 2, 5, 3, 3, 2, 2, 1, 2, 2, 2, 2, 2, 2, 1, 1, 1, 1, 1, 1, 5, 3, 3, 3, 2, 1, 5, 4, 4, 4, 3, 3, 4, 4, 4, 4, 3, 3, 5, 4, 4, 4, 4, 4, 2, 1, 1, 1, 1, 1, 5, 3, 3, 3, 2, 1, 4, 4, 3, 3, 2, 1, 4, 3, 3, 3, 2, 1, 4, 3, 3, 3, 3, 3, 3, 2, 2, 2, 2, 2, 3, 3, 3, 3, 2, 2, 4, 3, 3, 2, 2, 2, 2, 2, 2, 2, 2, 2, 3, 2, 2, 2, 2, 2
 |23, 17, 15, 12, 9, 7, 29, 26, 24, 23, 21, 20, 28, 26, 25, 23, 20, 19, 18, 17, 16, 15, 14, 13, 26, 21, 18, 16, 13, 11, 23, 22, 21, 20, 20, 19, 24, 23, 22, 21, 20, 20, 15, 11, 10, 8, 5, 2, 25, 18, 17, 11, 9, 3, 25, 24, 23, 21, 21, 20, 25, 23, 22, 20, 19, 18, 15, 15, 15, 14, 14, 14, 26, 23, 22, 21, 18, 16, 15, 14, 14, 14, 13, 13, 28, 27, 26, 25, 25, 24, 18, 17, 16, 16, 16, 15, 16, 15, 13, 9, 8, 4, 12, 10, 8, 5, 5, 1, 18, 17, 17, 17, 15, 15, 5, 4, 3, 3, 1, 1, 10, 8, 7, 7, 5, 5, 19, 18, 17, 17, 15, 14, 22, 22, 20, 19, 19, 18, 14, 14, 9, 9, 7, 2, 6, 6, 6, 5, 4, 4, 24, 22, 19, 18, 15, 12, 23, 23, 22, 22, 21, 20, 5, 4, 4, 4, 3, 3, 24, 21, 20, 16, 12, 10, 20, 18, 13, 10, 5, 4, 24, 17, 14, 11, 9, 8, 22, 17, 15, 8, 4, 4, 8, 6, 6, 3, 3, 2, 15, 14, 13, 11, 11, 8, 27, 25, 25, 21, 20, 15, 20, 17, 15, 11, 8, 6, 27, 25, 25, 23, 23, 22, 30, 29, 28, 28, 26, 26, 19, 16, 14, 13, 11, 10, 9, 8, 5, 5, 4, 1, 25, 23, 21, 20, 17, 16, 23, 19, 12, 9, 9, 3, 24, 22, 21, 19, 18, 16, 22, 17, 14, 11, 11, 6, 23, 23, 21, 17, 17, 13, 19, 18, 18, 18, 17, 17, 25, 23, 20, 17, 15, 11, 23, 23, 22, 22, 21, 21, 27, 25, 25, 23, 22, 19, 16, 13, 10, 10, 6, 4, 20, 18, 17, 12, 12, 7, 22, 18, 14, 12, 8, 6, 14, 11, 11, 8, 5, 2, 24, 20, 18, 15, 13, 8, 30, 25, 24, 21, 19, 18, 14, 12, 11, 9, 8, 7, 22, 19, 17, 17, 16, 13, 28, 27, 26, 24, 21, 20, 22, 21, 17, 15, 14, 11, 20, 20, 18, 18, 16, 16, 26, 24, 22, 22, 21, 20, 21, 19, 19, 19, 17, 17, 22, 19, 15, 11, 10, 6, 24, 23, 22, 21, 19, 18, 27, 23, 22, 20, 17, 14, 17, 16, 11, 10, 6, 3, 22, 22, 22, 22, 22, 22, 19, 19, 19, 19, 18, 18, 15, 14, 13, 13, 11, 10, 18, 16, 13, 8, 7, 2, 24, 22, 20, 19, 18, 17, 20, 19, 17, 15, 14, 12, 19, 19, 15, 14, 12, 11, 14, 14, 12, 11, 10, 10, 26, 26, 26, 25, 25, 25, 7, 6, 6, 5, 5, 5, 10, 8, 8, 5, 5, 3, 21, 19, 16, 16, 12, 11, 27, 25, 24, 22, 19, 19, 23, 21, 19, 17, 16, 13, 15, 14, 14, 13, 12, 12, 27, 25, 23, 23, 22, 20, 9, 7, 6, 6, 3, 2, 20, 19, 19, 18, 17, 17, 22, 22, 17, 17, 13, 9, 23, 19, 16, 14, 12, 11, 20, 18, 17, 14, 14, 11, 10, 9, 8, 8, 7, 7, 17, 17, 13, 11, 9, 9, 25, 24, 24, 24, 24, 24, 20, 18, 17, 17, 15, 13, 27, 23, 22, 19, 19, 16, 24, 24, 23, 21, 20, 17, 14, 12, 12, 9, 8, 8, 17, 16, 16, 16, 16, 16, 16, 14, 12, 11, 9, 6, 20, 18, 18, 18, 16, 16, 26, 24, 18, 13, 10, 7, 11, 10, 8, 8, 7, 6, 19, 17, 16, 15, 12, 10
 |27, 27, 25, 24, 23, 23, 29, 28, 27, 27, 26, 26, 19, 18, 18, 17, 17, 17, 27, 23, 18, 14, 7, 3, 17, 17, 16, 14, 13, 13, 26, 24, 15, 12, 8, 1, 22, 21, 19, 18, 18, 17, 18, 17, 14, 9, 7, 4, 7, 6, 6, 6, 6, 6, 15, 14, 12, 8, 4, 1, 18, 17, 16, 16, 14, 14, 25, 24, 21, 19, 16, 14, 16, 13, 13, 9, 6, 6, 17, 14, 13, 11, 10, 9, 24, 24, 20, 18, 13, 10, 22, 20, 15, 14, 11, 5, 26, 21, 18, 17, 14, 10, 22, 22, 21, 21, 21, 20, 10, 8, 8, 6, 5, 5, 11, 11, 11, 11, 11, 11, 15, 11, 10, 7, 6, 5, 29, 29, 29, 29, 28, 28, 30, 25, 20, 14, 12, 10, 30, 30, 30, 30, 30, 30, 20, 18, 18, 16, 15, 14, 4, 4, 4, 4, 4, 4, 25, 25, 25, 24, 24, 24, 16, 15, 13, 12, 11, 11, 11, 9, 9, 7, 6, 4, 25, 22, 20, 19, 17, 13, 9, 9, 9, 9, 9, 9, 25, 22, 20, 17, 17, 14, 19, 16, 15, 14, 11, 10, 20, 19, 18, 18, 17, 15, 28, 28, 24, 22, 21, 18, 18, 16, 15, 12, 12, 9, 14, 13, 10, 10, 7, 5, 19, 17, 14, 11, 11, 7, 24, 20, 17, 14, 14, 10, 18, 14, 12, 8, 8, 3, 24, 24, 22, 22, 20, 20, 12, 12, 10, 9, 8, 8, 25, 24, 20, 14, 11, 2, 12, 11, 11, 10, 9, 8, 13, 9, 7, 6, 5, 2, 23, 23, 21, 20, 19, 17, 17, 16, 14, 11, 9, 6, 23, 19, 17, 13, 13, 10, 27, 25, 24, 24, 23, 22, 13, 11, 10, 9, 8, 7, 21, 20, 20, 20, 19, 19, 5, 5, 5, 5, 4, 4, 7, 7, 6, 4, 4, 2, 10, 10, 10, 9, 9, 8, 26, 24, 24, 23, 22, 21, 19, 15, 12, 7, 4, 4, 29, 20, 20, 15, 11, 3, 24, 19, 16, 12, 7, 6, 14, 13, 13, 12, 12, 12, 20, 18, 13, 11, 7, 3, 18, 17, 17, 15, 13, 13, 8, 6, 5, 5, 3, 3, 25, 19, 15, 9, 9, 4, 20, 20, 18, 18, 15, 15, 13, 11, 11, 9, 8, 7, 14, 12, 10, 7, 6, 3, 28, 28, 28, 28, 27, 27, 14, 12, 10, 10, 7, 6, 12, 12, 12, 11, 10, 10, 17, 14, 11, 8, 4, 4, 26, 25, 23, 22, 22, 21, 7, 7, 6, 5, 4, 4, 28, 27, 27, 26, 25, 24, 19, 17, 14, 12, 10, 9, 22, 21, 21, 20, 20, 20, 13, 13, 12, 12, 12, 11, 29, 28, 28, 27, 27, 27, 16, 14, 14, 12, 11, 11, 15, 15, 13, 13, 11, 11, 11, 11, 11, 10, 10, 9, 21, 20, 19, 18, 17, 15, 21, 18, 18, 14, 8, 4, 23, 22, 18, 17, 16, 14, 18, 18, 16, 13, 9, 7, 26, 20, 19, 14, 6, 2, 15, 13, 12, 12, 10, 10, 24, 22, 20, 17, 16, 15, 25, 24, 24, 23, 23, 23, 20, 17, 13, 12, 10, 8, 22, 21, 21, 18, 16, 16, 10, 9, 9, 8, 6, 4, 22, 19, 15, 15, 12, 7, 23, 19, 16, 13, 9, 8, 15, 14, 13, 11, 10, 9, 26, 25, 21, 17, 15, 11, 10, 8, 8, 7, 5, 5, 6, 5, 4, 3, 3, 2, 21, 21, 20, 20, 19, 19, 16, 13, 13, 10, 10, 9, 17, 16, 16, 15, 15, 15
 |19, 18, 17, 17, 17, 16, 21, 21, 19, 16, 15, 13, 21, 19, 17, 16, 14, 12, 16, 15, 15, 14, 14, 14, 6, 5, 5, 4, 4, 4, 28, 27, 27, 27, 25, 25, 16, 12, 9, 8, 5, 2, 14, 12, 11, 9, 8, 7, 25, 23, 21, 16, 15, 10, 29, 28, 27, 26, 24, 23, 25, 24, 24, 23, 23, 22, 27, 27, 27, 27, 27, 27, 18, 17, 17, 17, 17, 17, 19, 18, 15, 11, 8, 1, 24, 22, 21, 21, 18, 17, 25, 18, 15, 12, 9, 7, 28, 28, 28, 28, 28, 28, 27, 21, 20, 17, 12, 11, 27, 25, 25, 23, 20, 19, 15, 14, 11, 10, 8, 7, 30, 24, 23, 19, 17, 14, 22, 19, 13, 12, 7, 5, 10, 10, 7, 5, 5, 3, 25, 22, 22, 20, 19, 18, 29, 24, 19, 12, 8, 3, 15, 14, 13, 8, 8, 4, 11, 11, 11, 11, 11, 11, 23, 17, 15, 14, 11, 9, 26, 26, 25, 25, 24, 23, 27, 26, 25, 25, 24, 23, 9, 9, 8, 7, 5, 3, 19, 17, 17, 16, 16, 15, 8, 8, 7, 5, 4, 4, 16, 14, 10, 10, 7, 4, 13, 13, 13, 13, 13, 13, 14, 14, 14, 13, 13, 13, 21, 21, 20, 17, 16, 14, 25, 23, 21, 20, 14, 14, 27, 25, 24, 20, 19, 17, 28, 26, 20, 19, 15, 12, 23, 20, 18, 16, 15, 12, 9, 9, 7, 7, 6, 4, 16, 13, 13, 10, 6, 4, 28, 25, 22, 21, 17, 13, 23, 22, 22, 22, 20, 20, 27, 27, 23, 21, 16, 15, 11, 11, 11, 10, 10, 10, 12, 12, 9, 7, 5, 2, 18, 16, 11, 11, 8, 3, 25, 23, 20, 18, 16, 14, 7, 5, 4, 3, 3, 2, 21, 18, 17, 14, 11, 8, 21, 20, 20, 19, 19, 19, 9, 9, 9, 9, 8, 8, 29, 27, 27, 26, 23, 23, 20, 19, 14, 10, 8, 7, 26, 19, 19, 14, 8, 8, 29, 26, 26, 25, 23, 22, 18, 16, 15, 14, 14, 13, 25, 25, 20, 17, 16, 12, 22, 21, 20, 18, 18, 17, 19, 18, 16, 11, 8, 7, 15, 12, 12, 9, 8, 4, 23, 22, 22, 22, 21, 20, 30, 28, 27, 26, 25, 24, 4, 4, 3, 3, 2, 2, 18, 16, 15, 12, 12, 11, 29, 29, 28, 28, 27, 27, 18, 16, 12, 9, 7, 2, 25, 25, 22, 20, 14, 12, 22, 21, 20, 20, 19, 18, 22, 19, 17, 17, 13, 9, 4, 3, 3, 3, 3, 3, 7, 6, 5, 4, 4, 3, 8, 8, 8, 7, 7, 7, 29, 27, 26, 23, 22, 18, 26, 22, 20, 19, 17, 15, 28, 27, 27, 27, 27, 27, 22, 21, 19, 19, 17, 16, 25, 25, 25, 25, 25, 25, 18, 18, 17, 15, 14, 14, 8, 7, 7, 6, 6, 5, 24, 22, 21, 20, 17, 16, 10, 9, 9, 8, 8, 8, 20, 16, 14, 9, 8, 3, 7, 6, 6, 6, 5, 4, 7, 6, 6, 5, 5, 4, 24, 23, 19, 18, 12, 12, 28, 25, 23, 23, 21, 20, 19, 18, 14, 14, 10, 9, 21, 21, 21, 20, 19, 19, 30, 29, 28, 28, 28, 27, 25, 25, 25, 25, 25, 25, 18, 15, 13, 10, 8, 8, 20, 14, 11, 10, 4, 2, 16, 14, 13, 12, 11, 9, 17, 17, 13, 11, 10, 9, 28, 26, 25, 22, 19, 18, 15, 11, 9, 8, 4, 2, 6, 5, 5, 5, 5, 5
 |10, 8, 7, 4, 3, 2, 17, 17, 14, 12, 10, 8, 30, 27, 25, 21, 18, 16, 19, 19, 18, 16, 16, 15, 12, 10, 10, 10, 8, 8, 29, 26, 24, 20, 20, 18, 18, 17, 15, 13, 9, 8, 19, 16, 14, 12, 9, 7, 8, 7, 6, 6, 4, 4, 9, 7, 7, 5, 4, 4, 18, 15, 12, 10, 8, 7, 10, 10, 8, 7, 6, 5, 22, 17, 14, 12, 10, 6, 28, 23, 22, 17, 16, 14, 9, 9, 7, 6, 5, 5, 3, 3, 3, 2, 2, 1, 25, 22, 19, 14, 9, 7, 22, 19, 16, 12, 5, 4, 13, 13, 12, 11, 11, 10, 18, 15, 13, 9, 8, 3, 21, 21, 21, 21, 21, 21, 22, 20, 20, 18, 16, 12, 17, 15, 14, 12, 12, 9, 25, 23, 21, 18, 15, 10, 28, 27, 26, 25, 24, 24, 14, 13, 13, 11, 10, 10, 25, 24, 22, 21, 21, 20, 20, 20, 20, 20, 20, 20, 19, 15, 14, 10, 10, 8, 16, 15, 15, 14, 14, 13, 24, 23, 20, 19, 18, 15, 22, 22, 22, 22, 22, 22, 23, 23, 21, 19, 18, 16, 30, 28, 27, 25, 24, 24, 27, 25, 22, 17, 14, 14, 12, 12, 12, 12, 12, 12, 14, 13, 11, 6, 5, 1, 16, 16, 16, 15, 14, 14, 15, 15, 9, 6, 6, 3, 15, 14, 14, 13, 13, 12, 20, 17, 14, 10, 8, 6, 28, 24, 22, 18, 16, 12, 28, 28, 27, 24, 23, 22, 17, 16, 13, 12, 11, 10, 17, 15, 13, 12, 9, 9, 25, 21, 19, 18, 14, 12, 2, 2, 2, 1, 1, 1, 5, 4, 4, 3, 2, 2, 16, 15, 14, 13, 12, 11, 26, 26, 24, 23, 23, 21, 28, 24, 22, 22, 20, 16, 19, 16, 12, 8, 7, 4, 27, 26, 24, 18, 18, 15, 27, 25, 18, 13, 12, 8, 24, 22, 18, 17, 16, 13, 18, 14, 11, 9, 4, 1, 27, 27, 27, 27, 26, 26, 23, 22, 17, 15, 11, 7, 16, 15, 10, 8, 7, 4, 13, 12, 12, 12, 12, 12, 18, 15, 13, 11, 10, 6, 10, 7, 6, 4, 2, 2, 26, 23, 20, 19, 15, 14, 10, 9, 8, 7, 6, 6, 10, 10, 9, 9, 9, 8, 13, 11, 10, 6, 5, 3, 6, 5, 5, 4, 4, 4, 13, 11, 10, 9, 5, 3, 19, 17, 15, 9, 5, 3, 22, 22, 21, 21, 19, 19, 22, 21, 20, 18, 15, 15, 25, 22, 19, 17, 17, 15, 22, 17, 13, 10, 6, 4, 23, 20, 18, 15, 9, 8, 28, 23, 17, 12, 7, 1, 28, 28, 28, 28, 28, 28, 25, 24, 24, 24, 23, 23, 23, 20, 19, 16, 11, 7, 13, 13, 13, 13, 13, 13, 25, 25, 25, 25, 25, 25, 28, 26, 26, 25, 23, 23, 10, 10, 10, 9, 9, 9, 14, 13, 11, 10, 8, 7, 8, 8, 8, 7, 7, 7, 24, 24, 24, 24, 24, 24, 28, 23, 23, 20, 18, 16, 28, 20, 18, 15, 13, 8, 11, 11, 11, 11, 10, 9, 23, 22, 18, 15, 10, 7, 27, 25, 24, 20, 18, 17, 16, 16, 14, 14, 12, 12, 12, 11, 10, 6, 5, 4, 9, 8, 7, 7, 5, 3, 26, 23, 20, 15, 10, 8, 14, 13, 12, 12, 10, 9, 27, 23, 20, 15, 12, 10, 15, 13, 11, 11, 9, 8, 30, 28, 26, 23, 21, 19, 29, 28, 28, 27, 26, 25, 17, 16, 14, 13, 12, 9|];